100 100 100
50
44 40 19
26 25 2
92 86 75
4 12 14
35 42 35
39 21 13
82 71 77
87 100 22
94 77 34
5 82 67
28 28 47
95 39 79
47 38 43
81 28 74
4 15 31
13 10 34
44 33 13
94 37 87
23 21 3
33 3 34
4 70 69
26 20 43
83 86 15
7 44 25
5 26 12
17 38 13
11 42 11
74 74 48
17 41 32
6 12 49
14 29 10
87 51 88
1 12 41
71 84 4
49 4 42
47 6 7
15 21 26
5 19 24
4 15 21
8 1 40
17 40 24
46 8 18
21 10 37
96 30 80
34 7 17
26 1 10
75 83 27
56 97 53
37 21 14
87 52 53
